
Gurobi 11.0.0 (win64, C++) logging started Wed Jul 30 01:47:41 2025

Set parameter TokenServer to value "141.76.38.119"
### START HEURISTIC APPROACH APPROACH ###
ProblemVariant: 1
### START PREPROCESSING ###
## Start start solution procedure ##
Start solution with 7 Vehicles and total costs 2794.05 in 16.9675 s.
### END PREPROCESSING ###
Route 0 0-31-4-0 : weight util 0.237211 | volume util 0.343022 | infeasible with packing heuristic | feasible with CP model
Route 1 0-9-8-22-29-0 : weight util 0.151605 | volume util 0.536044 | infeasible with packing heuristic | feasible with CP model
Route 2 0-7-30-2-28-27-26-18-0 : weight util 0.911605 | volume util 0.588533 | infeasible with packing heuristic | feasible with CP model
Route 3 0-11-19-25-20-3-5-0 : weight util 0.722842 | volume util 0.574378 | infeasible with packing heuristic | feasible with CP model
Route 4 0-6-12-10-0 : weight util 0.106947 | volume util 0.549756 | infeasible with packing heuristic | feasible with CP model
Route 5 0-23-24-14-15-21-0 : weight util 0.311526 | volume util 0.622867 | infeasible with packing heuristic | feasible with CP model
Route 6 0-32-1-17-13-16-0 : weight util 0.152079 | volume util 0.544178 | infeasible with packing heuristic | feasible with CP model
